N = 646;
M = 1632;
Edge_Start = [1, 1, 2, 2, 3, 3, 3, 4, 4, 5, 5, 5, 6, 6, 7, 7, 7, 8, 8, 9, 10, 11, 11, 11, 12, 12, 13, 13, 13, 14, 14, 15, 15, 15, 16, 16, 17, 17, 18, 19, 19, 19, 20, 20, 21, 21, 21, 22, 22, 23, 23, 23, 24, 24, 25, 25, 25, 26, 27, 27, 28, 28, 29, 29, 30, 30, 31, 31, 32, 32, 33, 33, 33, 34, 34, 35, 35, 36, 36, 37, 37, 37, 38, 38, 38, 39, 39, 39, 40, 40, 40, 41, 41, 41, 42, 42, 42, 43, 43, 43, 44, 44, 45, 45, 45, 46, 46, 46, 47, 47, 47, 48, 48, 48, 49, 49, 49, 50, 50, 50, 51, 51, 51, 52, 52, 52, 53, 53, 53, 54, 54, 54, 55, 55, 55, 56, 56, 56, 57, 57, 57, 58, 58, 58, 59, 59, 59, 60, 60, 60, 61, 61, 62, 62, 62, 63, 63, 63, 64, 64, 65, 65, 65, 66, 66, 67, 67, 67, 68, 68, 68, 69, 69, 70, 70, 71, 71, 72, 72, 73, 73, 73, 74, 74, 74, 75, 75, 75, 76, 76, 76, 77, 77, 77, 78, 78, 78, 79, 79, 79, 80, 80, 80, 81, 81, 81, 82, 82, 83, 83, 83, 84, 84, 84, 85, 85, 85, 86, 86, 86, 87, 87, 87, 88, 88, 88, 89, 89, 90, 90, 91, 91, 91, 92, 92, 92, 93, 93, 93, 94, 94, 94, 95, 95, 95, 96, 96, 97, 97, 98, 98, 98, 99, 99, 99, 100, 100, 100, 101, 101, 101, 102, 102, 102, 103, 103, 103, 104, 104, 105, 105, 106, 106, 106, 107, 107, 108, 108, 109, 109, 109, 110, 110, 110, 111, 111, 111, 112, 112, 112, 113, 113, 113, 114, 114, 114, 115, 115, 116, 116, 116, 117, 117, 117, 118, 118, 119, 119, 120, 120, 120, 121, 121, 121, 122, 122, 122, 123, 123, 123, 124, 124, 124, 125, 125, 125, 126, 126, 126, 127, 127, 127, 128, 128, 128, 129, 129, 129, 130, 130, 131, 131, 132, 132, 133, 133, 134, 134, 135, 135, 136, 136, 137, 137, 137, 138, 138, 138, 139, 139, 139, 140, 140, 140, 141, 141, 142, 142, 143, 144, 144, 145, 145, 146, 147, 147, 147, 148, 148, 148, 149, 149, 150, 151, 151, 152, 152, 152, 153, 153, 153, 154, 154, 154, 155, 155, 156, 156, 157, 157, 158, 158, 158, 159, 159, 159, 160, 160, 160, 161, 161, 161, 162, 162, 162, 163, 163, 164, 164, 165, 165, 165, 166, 166, 166, 167, 167, 167, 168, 168, 168, 169, 169, 170, 171, 171, 172, 172, 172, 173, 173, 173, 174, 174, 174, 175, 175, 175, 176, 176, 176, 177, 177, 177, 178, 178, 179, 180, 180, 181, 181, 181, 182, 182, 183, 183, 183, 184, 184, 184, 185, 185, 185, 186, 186, 187, 187, 187, 188, 188, 188, 189, 189, 190, 190, 190, 191, 191, 191, 192, 192, 192, 193, 193, 193, 194, 194, 195, 195, 196, 196, 196, 197, 197, 197, 198, 198, 198, 199, 199, 199, 200, 200, 200, 201, 201, 201, 202, 202, 202, 203, 203, 204, 204, 204, 205, 205, 206, 206, 206, 207, 207, 207, 208, 208, 208, 209, 209, 209, 210, 210, 210, 211, 211, 211, 212, 212, 212, 213, 213, 213, 214, 214, 215, 215, 216, 216, 217, 217, 217, 218, 218, 218, 219, 219, 219, 220, 220, 220, 221, 221, 221, 222, 222, 222, 223, 223, 223, 224, 225, 226, 226, 227, 227, 227, 228, 228, 229, 229, 230, 230, 231, 231, 231, 232, 232, 232, 233, 233, 233, 234, 234, 234, 235, 235, 236, 236, 237, 237, 237, 238, 238, 238, 239, 239, 240, 240, 240, 241, 241, 242, 242, 242, 243, 243, 243, 244, 244, 244, 245, 245, 245, 246, 246, 247, 247, 247, 248, 248, 248, 249, 249, 249, 250, 250, 251, 252, 252, 253, 253, 254, 254, 254, 255, 255, 256, 256, 256, 257, 257, 257, 258, 258, 258, 259, 259, 259, 260, 260, 261, 261, 261, 262, 262, 263, 263, 263, 264, 264, 264, 265, 265, 265, 266, 267, 268, 268, 268, 269, 269, 269, 270, 270, 270, 271, 271, 271, 272, 272, 272, 273, 273, 273, 274, 274, 274, 275, 275, 276, 276, 277, 277, 277, 278, 278, 278, 279, 279, 279, 280, 280, 280, 281, 281, 281, 282, 282, 283, 283, 283, 284, 284, 284, 285, 285, 285, 286, 286, 286, 287, 287, 288, 288, 289, 289, 290, 290, 290, 291, 291, 292, 292, 292, 293, 293, 293, 294, 294, 295, 295, 296, 296, 296, 297, 297, 297, 298, 298, 298, 299, 299, 299, 300, 300, 300, 301, 301, 301, 302, 302, 302, 303, 304, 304, 305, 305, 306, 306, 307, 307, 308, 308, 309, 309, 309, 310, 310, 310, 311, 311, 311, 312, 312, 312, 313, 313, 313, 314, 314, 314, 315, 315, 316, 316, 317, 317, 317, 318, 318, 318, 319, 319, 320, 320, 321, 321, 321, 322, 322, 322, 323, 323, 324, 324, 325, 325, 325, 326, 326, 326, 327, 327, 327, 328, 328, 328, 329, 329, 329, 330, 330, 330, 331, 331, 331, 332, 332, 332, 333, 333, 333, 334, 334, 334, 335, 335, 335, 336, 336, 336, 337, 337, 338, 338, 338, 339, 339, 339, 340, 340, 341, 341, 342, 342, 342, 343, 343, 343, 344, 344, 344, 345, 345, 345, 346, 346, 346, 347, 347, 347, 348, 348, 348, 349, 349, 350, 350, 351, 351, 352, 352, 353, 353, 353, 354, 354, 355, 355, 356, 356, 356, 357, 357, 357, 358, 358, 358, 359, 359, 360, 361, 361, 361, 362, 362, 362, 363, 363, 363, 364, 364, 364, 365, 365, 365, 366, 366, 366, 367, 367, 368, 368, 369, 369, 369, 370, 370, 370, 371, 371, 371, 372, 372, 372, 373, 373, 374, 374, 374, 375, 375, 376, 377, 377, 378, 378, 379, 379, 379, 380, 380, 380, 381, 381, 381, 382, 382, 382, 383, 383, 383, 384, 384, 385, 385, 386, 386, 386, 387, 387, 388, 388, 389, 389, 390, 390, 391, 391, 391, 392, 392, 392, 393, 393, 393, 394, 394, 395, 395, 396, 397, 397, 397, 398, 398, 398, 399, 399, 399, 400, 400, 400, 401, 401, 401, 402, 402, 403, 403, 404, 404, 404, 405, 405, 405, 406, 406, 406, 407, 407, 407, 408, 408, 408, 409, 409, 409, 410, 410, 411, 411, 412, 412, 412, 413, 413, 413, 414, 414, 415, 415, 415, 416, 416, 416, 417, 417, 418, 418, 418, 419, 419, 420, 420, 421, 421, 422, 422, 422, 423, 423, 423, 424, 424, 424, 425, 425, 425, 426, 426, 426, 427, 427, 427, 428, 428, 428, 429, 429, 429, 430, 430, 431, 431, 432, 433, 433, 434, 434, 435, 435, 436, 436, 436, 437, 437, 437, 438, 438, 438, 439, 439, 439, 440, 440, 440, 441, 441, 441, 442, 442, 442, 443, 443, 443, 444, 444, 444, 445, 445, 446, 446, 447, 447, 447, 448, 448, 449, 449, 449, 450, 450, 450, 451, 451, 451, 452, 452, 452, 453, 453, 454, 454, 454, 455, 455, 456, 456, 457, 457, 458, 458, 459, 460, 460, 461, 461, 461, 462, 462, 463, 464, 465, 465, 466, 466, 466, 467, 467, 468, 468, 469, 469, 469, 470, 470, 470, 471, 471, 472, 472, 472, 473, 473, 473, 474, 474, 475, 476, 476, 476, 477, 477, 477, 478, 478, 478, 479, 480, 480, 481, 481, 481, 482, 482, 482, 483, 483, 483, 484, 484, 485, 485, 485, 486, 486, 486, 487, 487, 487, 488, 488, 488, 489, 489, 489, 490, 490, 490, 491, 491, 491, 492, 492, 492, 493, 493, 493, 494, 494, 494, 495, 495, 495, 496, 496, 496, 497, 497, 497, 498, 498, 498, 499, 499, 499, 500, 500, 500, 501, 501, 502, 502, 503, 503, 504, 504, 505, 505, 506, 507, 507, 508, 508, 508, 509, 509, 509, 510, 510, 510, 511, 511, 512, 512, 513, 513, 513, 514, 514, 514, 515, 515, 516, 516, 516, 517, 517, 517, 518, 518, 518, 519, 519, 519, 520, 520, 520, 521, 521, 521, 522, 522, 523, 523, 523, 524, 524, 524, 525, 525, 525, 526, 526, 526, 527, 527, 527, 528, 528, 528, 529, 529, 529, 530, 530, 530, 531, 531, 532, 533, 533, 534, 534, 534, 535, 535, 535, 536, 536, 537, 537, 538, 538, 538, 539, 539, 540, 540, 541, 541, 542, 543, 543, 543, 544, 544, 545, 545, 546, 546, 546, 547, 547, 547, 548, 548, 549, 549, 549, 550, 550, 551, 551, 552, 552, 552, 553, 553, 553, 554, 554, 554, 555, 555, 555, 556, 556, 556, 557, 557, 558, 559, 559, 559, 560, 560, 560, 561, 561, 561, 562, 562, 562, 563, 563, 563, 564, 564, 564, 565, 565, 565, 566, 566, 566, 567, 567, 567, 568, 568, 568, 569, 569, 569, 570, 570, 570, 571, 571, 571, 572, 572, 573, 573, 574, 574, 574, 575, 576, 576, 577, 577, 577, 578, 578, 578, 579, 579, 580, 580, 581, 581, 581, 582, 582, 582, 583, 583, 583, 584, 585, 585, 586, 586, 586, 587, 587, 588, 588, 589, 589, 589, 590, 591, 592, 592, 593, 593, 593, 594, 594, 594, 595, 595, 595, 596, 596, 596, 597, 597, 598, 598, 599, 599, 599, 600, 600, 600, 601, 601, 602, 603, 603, 604, 604, 605, 605, 605, 606, 606, 607, 607, 608, 608, 609, 609, 609, 610, 610, 610, 611, 612, 612, 613, 613, 614, 614, 615, 616, 616, 616, 617, 617, 618, 618, 619, 620, 620, 621, 621, 622, 622, 622, 623, 623, 624, 624, 624, 625, 625, 626, 627, 628, 628, 628, 629, 629, 630, 630, 630, 631, 632, 632, 633, 633, 634, 634, 634, 635, 635, 636, 636, 636, 637, 637, 638, 639, 640, 640, 641, 642, 642, 642, 643, 643, 644, 644, 645, 645, 646, 646];
Edge_End = [2, 36, 1, 3, 2, 4, 38, 3, 5, 4, 6, 40, 5, 7, 6, 8, 42, 7, 9, 8, 11, 10, 12, 46, 11, 13, 12, 14, 48, 13, 15, 14, 16, 50, 15, 17, 16, 52, 19, 18, 20, 54, 19, 21, 20, 22, 56, 21, 23, 22, 24, 58, 23, 25, 24, 26, 60, 25, 28, 62, 27, 29, 28, 30, 29, 31, 30, 32, 31, 33, 32, 34, 68, 33, 35, 34, 70, 1, 37, 36, 38, 73, 3, 37, 39, 38, 40, 75, 5, 39, 41, 40, 42, 77, 7, 41, 43, 42, 44, 79, 43, 45, 44, 46, 81, 11, 45, 47, 46, 48, 83, 13, 47, 49, 48, 50, 85, 15, 49, 51, 50, 52, 87, 17, 51, 53, 52, 54, 89, 19, 53, 55, 54, 56, 91, 21, 55, 57, 56, 58, 93, 23, 57, 59, 58, 60, 95, 25, 59, 61, 60, 62, 27, 61, 63, 62, 64, 99, 63, 65, 64, 66, 101, 65, 67, 66, 68, 103, 33, 67, 69, 68, 105, 35, 71, 70, 107, 73, 108, 37, 72, 74, 73, 75, 110, 39, 74, 76, 75, 77, 112, 41, 76, 78, 77, 79, 114, 43, 78, 80, 79, 81, 116, 45, 80, 82, 81, 83, 47, 82, 84, 83, 85, 120, 49, 84, 86, 85, 87, 122, 51, 86, 88, 87, 89, 124, 53, 88, 91, 126, 55, 90, 92, 91, 93, 128, 57, 92, 94, 93, 95, 130, 59, 94, 96, 95, 97, 96, 98, 97, 99, 134, 63, 98, 100, 99, 101, 136, 65, 100, 102, 101, 103, 138, 67, 102, 104, 103, 140, 69, 106, 105, 107, 142, 71, 106, 72, 109, 108, 110, 145, 74, 109, 111, 110, 112, 147, 76, 111, 113, 112, 114, 149, 78, 113, 115, 114, 116, 80, 115, 117, 116, 118, 153, 117, 119, 118, 120, 84, 119, 121, 120, 122, 157, 86, 121, 123, 122, 124, 159, 88, 123, 125, 124, 126, 161, 90, 125, 127, 126, 128, 163, 92, 127, 129, 128, 130, 165, 94, 129, 132, 167, 131, 133, 132, 169, 98, 135, 134, 171, 100, 137, 136, 138, 173, 102, 137, 139, 138, 140, 175, 104, 139, 141, 140, 177, 106, 143, 142, 145, 180, 109, 144, 147, 111, 146, 148, 147, 149, 184, 113, 148, 151, 150, 152, 151, 153, 188, 117, 152, 154, 153, 155, 190, 154, 156, 155, 192, 121, 158, 157, 159, 194, 123, 158, 160, 159, 161, 196, 125, 160, 162, 161, 163, 198, 127, 162, 165, 200, 129, 164, 166, 165, 167, 202, 131, 166, 168, 167, 169, 204, 133, 168, 206, 135, 172, 171, 173, 208, 137, 172, 174, 173, 175, 210, 139, 174, 176, 175, 177, 212, 141, 176, 178, 177, 179, 178, 144, 181, 180, 182, 217, 181, 183, 182, 184, 219, 148, 183, 185, 184, 186, 221, 185, 187, 186, 188, 223, 152, 187, 189, 188, 190, 154, 189, 191, 190, 192, 227, 156, 191, 193, 192, 194, 229, 158, 193, 196, 231, 160, 195, 197, 196, 198, 233, 162, 197, 199, 198, 200, 235, 164, 199, 201, 200, 202, 237, 166, 201, 203, 202, 204, 168, 203, 205, 204, 206, 170, 205, 207, 206, 208, 243, 172, 207, 209, 208, 210, 245, 174, 209, 211, 210, 212, 247, 176, 211, 213, 212, 214, 249, 213, 215, 214, 251, 217, 252, 181, 216, 218, 217, 219, 254, 183, 218, 220, 219, 221, 256, 185, 220, 222, 221, 223, 258, 187, 222, 224, 223, 226, 225, 227, 191, 226, 228, 227, 264, 193, 230, 229, 231, 195, 230, 232, 231, 233, 268, 197, 232, 234, 233, 235, 270, 199, 234, 237, 272, 201, 236, 238, 237, 239, 274, 238, 240, 239, 241, 276, 240, 242, 241, 243, 278, 207, 242, 244, 243, 245, 280, 209, 244, 246, 245, 247, 211, 246, 248, 247, 249, 284, 213, 248, 250, 249, 286, 215, 216, 253, 252, 254, 218, 253, 255, 254, 256, 220, 255, 257, 256, 258, 293, 222, 257, 259, 258, 260, 295, 259, 261, 260, 262, 297, 261, 263, 262, 264, 299, 228, 263, 265, 264, 266, 301, 265, 268, 232, 267, 269, 268, 270, 305, 234, 269, 271, 270, 272, 307, 236, 271, 273, 272, 274, 309, 238, 273, 275, 274, 311, 240, 277, 276, 278, 313, 242, 277, 279, 278, 280, 315, 244, 279, 281, 280, 282, 317, 281, 283, 282, 284, 319, 248, 283, 285, 284, 286, 321, 250, 285, 287, 286, 323, 289, 324, 288, 290, 289, 291, 326, 290, 292, 291, 293, 328, 257, 292, 294, 293, 330, 259, 296, 295, 297, 332, 261, 296, 298, 297, 299, 334, 263, 298, 300, 299, 301, 336, 265, 300, 302, 301, 303, 338, 302, 305, 340, 269, 304, 307, 342, 271, 306, 309, 344, 273, 308, 310, 309, 311, 346, 275, 310, 312, 311, 313, 348, 277, 312, 314, 313, 315, 350, 279, 314, 317, 352, 281, 316, 318, 317, 319, 354, 283, 318, 321, 356, 285, 320, 322, 321, 323, 358, 287, 322, 288, 325, 324, 326, 361, 290, 325, 327, 326, 328, 363, 292, 327, 329, 328, 330, 365, 294, 329, 331, 330, 332, 367, 296, 331, 333, 332, 334, 369, 298, 333, 335, 334, 336, 371, 300, 335, 337, 336, 338, 302, 337, 339, 338, 340, 375, 304, 339, 342, 377, 306, 341, 343, 342, 344, 379, 308, 343, 345, 344, 346, 381, 310, 345, 347, 346, 348, 383, 312, 347, 349, 348, 385, 314, 351, 350, 387, 316, 353, 352, 354, 389, 318, 353, 356, 391, 320, 355, 357, 356, 358, 393, 322, 357, 359, 358, 395, 361, 325, 360, 362, 361, 363, 398, 327, 362, 364, 363, 365, 400, 329, 364, 366, 365, 367, 402, 331, 366, 369, 404, 333, 368, 370, 369, 371, 406, 335, 370, 372, 371, 373, 408, 372, 374, 373, 375, 410, 339, 374, 412, 341, 378, 377, 379, 343, 378, 380, 379, 381, 416, 345, 380, 382, 381, 383, 418, 347, 382, 384, 383, 420, 349, 386, 385, 387, 422, 351, 386, 389, 424, 353, 388, 391, 426, 355, 390, 392, 391, 393, 428, 357, 392, 394, 393, 395, 359, 394, 397, 396, 398, 433, 362, 397, 399, 398, 400, 435, 364, 399, 401, 400, 402, 437, 366, 401, 404, 439, 368, 403, 405, 404, 406, 441, 370, 405, 407, 406, 408, 443, 372, 407, 409, 408, 410, 445, 374, 409, 412, 447, 376, 411, 413, 412, 414, 449, 413, 415, 414, 416, 451, 380, 415, 417, 416, 418, 382, 417, 419, 418, 455, 384, 421, 420, 422, 386, 421, 423, 422, 424, 459, 388, 423, 425, 424, 426, 461, 390, 425, 427, 426, 428, 463, 392, 427, 429, 428, 430, 465, 429, 431, 430, 467, 468, 397, 434, 433, 470, 399, 436, 435, 437, 472, 401, 436, 438, 437, 439, 474, 403, 438, 440, 439, 441, 476, 405, 440, 442, 441, 443, 478, 407, 442, 444, 443, 445, 480, 409, 444, 447, 482, 411, 446, 448, 447, 449, 413, 448, 450, 449, 451, 486, 415, 450, 452, 451, 453, 488, 452, 454, 453, 455, 490, 419, 454, 457, 492, 456, 458, 457, 494, 423, 461, 496, 425, 460, 462, 461, 498, 427, 500, 429, 466, 465, 467, 502, 431, 466, 432, 469, 468, 470, 505, 434, 469, 471, 470, 472, 436, 471, 473, 472, 474, 509, 438, 473, 476, 440, 475, 477, 476, 478, 513, 442, 477, 479, 478, 444, 481, 480, 482, 517, 446, 481, 483, 482, 484, 519, 483, 485, 484, 486, 521, 450, 485, 487, 486, 488, 523, 452, 487, 489, 488, 490, 525, 454, 489, 491, 490, 492, 527, 456, 491, 493, 492, 494, 529, 458, 493, 495, 494, 496, 531, 460, 495, 497, 496, 498, 533, 462, 497, 499, 498, 500, 535, 464, 499, 501, 500, 537, 466, 503, 502, 539, 505, 540, 469, 504, 507, 506, 508, 507, 509, 544, 473, 508, 510, 509, 511, 546, 510, 512, 511, 513, 477, 512, 514, 513, 515, 550, 514, 516, 515, 517, 552, 481, 516, 518, 517, 519, 554, 483, 518, 520, 519, 521, 556, 485, 520, 522, 521, 523, 487, 522, 524, 523, 525, 560, 489, 524, 526, 525, 527, 562, 491, 526, 528, 527, 529, 564, 493, 528, 530, 529, 531, 566, 495, 530, 568, 497, 534, 533, 535, 570, 499, 534, 536, 535, 572, 501, 538, 537, 539, 574, 503, 538, 504, 541, 540, 577, 543, 542, 544, 579, 508, 543, 546, 581, 510, 545, 547, 546, 548, 583, 547, 549, 548, 550, 585, 514, 549, 552, 587, 516, 551, 553, 552, 554, 589, 518, 553, 555, 554, 556, 591, 520, 555, 557, 556, 593, 559, 558, 560, 595, 524, 559, 561, 560, 562, 597, 526, 561, 563, 562, 564, 599, 528, 563, 565, 564, 566, 601, 530, 565, 567, 566, 568, 603, 532, 567, 569, 568, 570, 605, 534, 569, 571, 570, 572, 607, 536, 571, 574, 609, 538, 573, 575, 574, 577, 612, 541, 576, 578, 577, 579, 614, 543, 578, 581, 616, 545, 580, 582, 581, 583, 618, 547, 582, 584, 583, 549, 586, 585, 587, 622, 551, 586, 589, 624, 553, 588, 590, 589, 555, 593, 628, 557, 592, 594, 593, 595, 630, 559, 594, 596, 595, 597, 632, 561, 596, 599, 634, 563, 598, 600, 599, 601, 636, 565, 600, 603, 567, 602, 605, 640, 569, 604, 606, 605, 642, 571, 608, 607, 609, 573, 608, 610, 609, 611, 646, 610, 576, 613, 612, 614, 578, 613, 616, 580, 615, 617, 616, 618, 582, 617, 620, 619, 621, 620, 622, 586, 621, 623, 622, 624, 588, 623, 625, 624, 626, 625, 628, 592, 627, 629, 628, 630, 594, 629, 631, 630, 596, 633, 632, 634, 598, 633, 635, 634, 636, 600, 635, 637, 636, 638, 637, 640, 604, 639, 642, 606, 641, 643, 642, 644, 643, 645, 644, 646, 610, 645];
L = [7, 16, 7, 9, 9, 5, 19, 5, 6, 6, 15, 6, 15, 11, 11, 6, 2, 6, 9, 9, 16, 16, 12, 6, 12, 19, 19, 17, 1, 17, 2, 2, 5, 19, 5, 19, 19, 15, 13, 13, 10, 18, 10, 8, 8, 2, 13, 2, 14, 14, 11, 6, 11, 5, 5, 18, 6, 18, 2, 11, 2, 16, 16, 15, 15, 15, 15, 6, 6, 3, 3, 17, 14, 17, 11, 11, 13, 16, 12, 12, 9, 15, 19, 9, 14, 14, 1, 9, 6, 1, 8, 8, 14, 13, 2, 14, 1, 1, 1, 19, 1, 7, 7, 18, 15, 6, 18, 2, 2, 8, 5, 1, 8, 1, 1, 5, 15, 19, 5, 2, 2, 7, 16, 15, 7, 7, 7, 11, 16, 18, 11, 17, 17, 12, 15, 13, 12, 8, 8, 7, 10, 6, 7, 8, 8, 13, 14, 6, 13, 12, 12, 12, 11, 12, 7, 7, 9, 2, 9, 1, 1, 18, 3, 18, 1, 1, 12, 1, 14, 12, 15, 15, 8, 13, 14, 14, 19, 7, 11, 15, 7, 4, 4, 1, 1, 9, 1, 14, 14, 3, 7, 13, 3, 14, 14, 5, 7, 19, 5, 1, 1, 12, 2, 15, 12, 1, 1, 9, 5, 9, 6, 6, 6, 6, 15, 6, 13, 13, 11, 16, 16, 11, 9, 9, 1, 17, 16, 1, 14, 2, 15, 14, 3, 3, 1, 2, 10, 1, 2, 2, 8, 14, 14, 8, 9, 9, 5, 5, 18, 18, 11, 17, 2, 11, 17, 17, 1, 3, 3, 1, 2, 2, 18, 2, 1, 18, 3, 3, 13, 8, 1, 1, 10, 13, 19, 10, 11, 5, 5, 8, 12, 1, 8, 14, 14, 18, 6, 7, 18, 6, 6, 13, 14, 7, 13, 6, 6, 1, 2, 1, 16, 16, 9, 8, 9, 18, 18, 18, 6, 18, 17, 17, 12, 1, 16, 12, 16, 16, 12, 15, 17, 12, 16, 16, 4, 17, 2, 4, 8, 8, 11, 1, 2, 11, 9, 9, 3, 12, 14, 3, 15, 8, 15, 11, 11, 9, 17, 17, 17, 17, 3, 7, 7, 8, 7, 2, 8, 3, 3, 5, 12, 13, 5, 1, 1, 9, 13, 15, 15, 6, 2, 12, 6, 13, 6, 13, 14, 14, 14, 12, 14, 14, 6, 6, 17, 17, 8, 16, 8, 8, 6, 6, 7, 15, 7, 18, 18, 11, 1, 11, 11, 16, 13, 15, 16, 2, 2, 11, 18, 17, 11, 15, 15, 1, 12, 1, 1, 8, 9, 12, 8, 2, 2, 18, 7, 8, 18, 18, 18, 4, 15, 9, 4, 4, 17, 1, 1, 1, 16, 7, 1, 16, 16, 18, 11, 12, 18, 8, 8, 11, 11, 9, 11, 5, 5, 11, 11, 2, 17, 17, 6, 2, 6, 15, 15, 7, 13, 12, 7, 10, 10, 12, 4, 12, 6, 6, 11, 12, 16, 11, 16, 16, 11, 15, 11, 12, 12, 12, 9, 11, 12, 1, 1, 17, 18, 13, 17, 3, 12, 18, 3, 18, 18, 7, 16, 12, 7, 6, 6, 4, 5, 9, 4, 5, 5, 4, 5, 7, 4, 4, 4, 7, 15, 7, 16, 16, 8, 4, 8, 2, 2, 17, 19, 16, 17, 12, 12, 4, 8, 11, 4, 7, 7, 10, 6, 11, 10, 11, 11, 9, 9, 9, 3, 3, 2, 14, 17, 2, 14, 8, 8, 16, 19, 13, 16, 1, 1, 16, 11, 4, 16, 18, 18, 7, 11, 12, 7, 12, 12, 7, 7, 17, 9, 17, 7, 7, 2, 18, 2, 2, 12, 12, 12, 1, 1, 7, 4, 16, 7, 5, 5, 2, 16, 5, 2, 19, 6, 5, 19, 1, 1, 3, 6, 3, 4, 4, 16, 15, 16, 16, 16, 17, 8, 19, 17, 4, 4, 18, 7, 8, 18, 1, 1, 7, 6, 7, 16, 16, 14, 14, 9, 14, 1, 1, 16, 2, 17, 5, 5, 15, 19, 15, 7, 7, 14, 11, 14, 3, 3, 13, 5, 11, 13, 13, 13, 6, 9, 6, 4, 4, 1, 3, 1, 5, 5, 3, 4, 2, 3, 4, 4, 11, 19, 11, 3, 4, 3, 17, 17, 11, 11, 16, 11, 16, 16, 1, 18, 6, 1, 10, 10, 11, 16, 6, 11, 13, 13, 9, 15, 13, 13, 9, 4, 8, 9, 15, 15, 9, 1, 7, 9, 7, 7, 12, 13, 12, 2, 2, 7, 7, 14, 7, 2, 2, 12, 9, 16, 12, 10, 10, 11, 18, 2, 18, 12, 12, 18, 2, 18, 16, 16, 3, 7, 5, 3, 18, 18, 16, 9, 1, 1, 12, 6, 3, 12, 1, 1, 16, 4, 4, 16, 9, 9, 14, 9, 19, 14, 14, 14, 13, 19, 13, 7, 4, 11, 7, 6, 5, 18, 6, 11, 18, 16, 11, 3, 3, 1, 18, 9, 1, 5, 5, 15, 13, 4, 15, 15, 15, 7, 19, 1, 7, 8, 13, 13, 8, 6, 6, 15, 6, 7, 15, 9, 19, 9, 9, 9, 9, 16, 19, 11, 16, 2, 7, 7, 4, 6, 2, 4, 11, 11, 3, 16, 7, 3, 16, 16, 5, 3, 16, 5, 10, 10, 17, 19, 6, 17, 6, 6, 6, 5, 4, 6, 8, 8, 5, 15, 9, 5, 1, 1, 9, 19, 9, 15, 15, 8, 10, 4, 8, 12, 8, 5, 12, 12, 12, 1, 15, 18, 1, 1, 1, 11, 6, 18, 11, 12, 12, 5, 10, 13, 5, 8, 8, 4, 19, 17, 17, 4, 13, 14, 14, 10, 13, 6, 10, 15, 16, 19, 15, 12, 12, 19, 9, 19, 19, 15, 15, 6, 12, 6, 12, 1, 1, 15, 4, 16, 15, 1, 1, 17, 19, 3, 17, 17, 17, 10, 3, 19, 10, 5, 14, 5, 5, 14, 14, 7, 3, 15, 7, 14, 14, 13, 7, 13, 1, 1, 16, 4, 10, 16, 2, 8, 14, 14, 8, 15, 8, 15, 15, 18, 18, 6, 18, 9, 9, 11, 18, 10, 11, 8, 8, 7, 4, 4, 4, 1, 15, 4, 1, 3, 12, 13, 3, 10, 13, 16, 10, 1, 1, 12, 16, 9, 12, 16, 16, 1, 6, 1, 3, 3, 18, 12, 4, 18, 5, 5, 5, 18, 19, 5, 16, 16, 9, 10, 3, 9, 2, 11, 14, 2, 1, 1, 1, 1, 3, 1, 2, 2, 14, 3, 7, 14, 17, 17, 4, 8, 4, 4, 3, 3, 2, 3, 10, 10, 4, 10, 4, 4, 4, 9, 8, 18, 9, 7, 7, 17, 18, 17, 3, 3, 15, 7, 4, 4, 17, 15, 17, 15, 15, 15, 11, 12, 15, 17, 17, 6, 12, 13, 6, 16, 16, 14, 14, 16, 14, 15, 15, 8, 7, 8, 2, 2, 6, 6, 12, 16, 16, 7, 18, 15, 15, 18, 5, 10, 18, 9, 9, 10, 9, 11, 10, 10, 10, 12, 5, 1, 12, 17, 17, 15, 3, 3, 15, 13, 13, 18, 8, 8, 18, 2, 12, 3, 2, 10, 10, 4, 10, 4, 12, 12, 5, 1, 8, 5, 5, 5, 14, 6, 14, 1, 1, 11, 10, 15, 11, 4, 2, 4, 13, 13, 5, 11, 18, 15, 12, 18, 8, 8, 18, 14, 4, 7, 14, 14, 4, 5, 6, 4, 6, 8, 8, 12, 6, 7, 12, 8, 8, 13, 5, 13, 3, 3, 11, 7, 9, 11, 9, 5, 9, 1, 1, 14, 6, 3, 14, 17, 17, 8, 8, 8, 18, 3, 12, 18, 10, 10, 14, 2, 14, 18, 18, 5, 11, 1, 5, 9, 9, 12, 7, 6, 12, 7, 7, 11, 6, 10, 11, 18, 18, 5, 2, 2, 5, 6, 6, 1, 10, 5, 1, 17, 17, 17, 8, 15, 17, 11, 11, 3, 6, 18, 3, 12, 12, 17, 14, 4, 17, 17, 17, 12, 5, 2, 2, 12, 13, 14, 6, 13, 2, 2, 10, 10, 2, 14, 7, 2, 7, 7, 1, 8, 1, 15, 15, 16, 6, 16, 6, 6, 13, 3, 13, 11, 11, 3, 4, 3, 3, 2, 2, 18, 19, 2, 18, 15, 15, 19, 7, 11, 19, 8, 8, 16, 7, 16, 18, 18, 12, 19, 6, 12, 3, 3, 13, 9, 2, 13, 16, 16, 11, 19, 10, 11, 16, 16, 9, 5, 8, 9, 13, 6, 8, 8, 14, 1, 14, 14, 12, 12, 4, 12, 13, 13, 1, 12, 12, 1, 14, 8, 8, 6, 2, 2, 13, 19, 14, 13, 14, 13, 8, 14, 1, 1, 3, 8, 3, 3, 3, 13, 6, 3, 13, 1, 7, 4, 1, 2, 2, 1, 19, 19, 1, 1, 1, 4, 11, 7, 4, 15, 15, 7, 4, 4, 7, 19, 19, 7, 10, 10, 7, 3, 9, 7, 10, 10, 4, 18, 19, 4, 9, 9, 3, 4, 5, 3, 5, 5, 13, 17, 13, 13, 15, 15, 10, 8, 1, 10, 13, 13, 16, 15, 4, 16, 8, 14, 12, 8, 4, 4, 2, 3, 6, 2, 2, 2, 13, 2, 19, 13, 14, 5, 13, 14, 3, 3, 6, 19, 8, 6, 1, 1, 6, 2, 2, 4, 1, 7, 4, 1, 8, 19, 1, 18, 18, 11, 8, 10, 7, 8, 12, 12, 12, 10, 19, 12, 18, 18, 19, 4, 3, 19, 5, 2, 18, 5, 1, 1, 16, 13, 4, 16, 9, 17, 9, 9, 11, 8, 9, 11, 11, 9, 15, 14, 14, 15, 14, 15, 11, 11, 4, 10, 4, 3, 2, 2, 10, 2, 10, 8, 5, 8, 3, 3, 11, 19, 11, 2, 2, 8, 8, 14, 1, 14, 16, 16, 1, 8, 1, 3, 3, 6, 6, 13, 10, 13, 6, 6, 11, 10, 11, 4, 4, 4, 12, 12, 12, 2, 12, 1, 1, 16, 13, 16, 4, 4, 7, 7, 4, 11, 4, 14, 9, 14, 17, 17, 6, 6, 3, 3, 10, 10, 10];
T = [6, 9, 6, 5, 5, 3, 16, 3, 13, 13, 15, 1, 15, 8, 8, 12, 12, 12, 6, 6, 13, 13, 8, 10, 8, 23, 23, 19, 1, 19, 1, 1, 3, 20, 3, 17, 17, 17, 14, 14, 5, 15, 5, 7, 7, 1, 18, 1, 12, 12, 2, 11, 2, 9, 9, 15, 1, 15, 3, 11, 3, 27, 27, 9, 9, 7, 7, 3, 3, 1, 1, 10, 20, 10, 18, 18, 12, 9, 7, 7, 12, 28, 16, 12, 12, 12, 1, 8, 1, 1, 1, 1, 17, 14, 12, 17, 2, 2, 1, 7, 1, 8, 8, 9, 20, 10, 9, 1, 1, 10, 4, 1, 10, 1, 1, 1, 18, 20, 1, 1, 1, 3, 11, 17, 3, 1, 1, 9, 9, 15, 9, 19, 19, 4, 18, 18, 4, 9, 9, 10, 15, 11, 10, 11, 11, 16, 15, 1, 16, 4, 4, 16, 11, 16, 8, 8, 8, 1, 8, 2, 2, 18, 4, 18, 2, 2, 17, 1, 20, 17, 13, 13, 11, 12, 13, 13, 21, 3, 11, 28, 3, 5, 5, 2, 2, 8, 2, 20, 20, 1, 10, 14, 1, 11, 11, 1, 4, 7, 1, 1, 1, 20, 2, 20, 20, 1, 1, 9, 4, 9, 7, 7, 16, 1, 18, 16, 12, 12, 13, 20, 11, 13, 10, 10, 1, 12, 9, 1, 18, 6, 18, 18, 6, 6, 2, 1, 15, 2, 3, 3, 5, 17, 15, 5, 15, 15, 2, 2, 14, 14, 11, 26, 1, 11, 22, 22, 4, 1, 4, 4, 1, 1, 17, 1, 1, 17, 1, 1, 6, 11, 4, 4, 9, 15, 21, 9, 11, 6, 6, 3, 1, 2, 3, 4, 4, 18, 2, 10, 18, 7, 7, 19, 16, 4, 19, 10, 10, 1, 2, 1, 23, 23, 8, 6, 8, 17, 17, 21, 1, 21, 18, 18, 17, 1, 20, 17, 17, 17, 14, 11, 12, 14, 4, 4, 7, 9, 6, 7, 14, 14, 8, 1, 1, 8, 18, 18, 1, 18, 17, 1, 17, 9, 17, 15, 15, 6, 26, 16, 16, 15, 1, 9, 9, 6, 7, 1, 6, 1, 1, 2, 1, 6, 2, 1, 1, 7, 15, 17, 17, 8, 8, 1, 8, 12, 2, 12, 12, 12, 17, 13, 16, 17, 9, 9, 13, 13, 11, 8, 6, 11, 8, 8, 3, 21, 3, 14, 14, 15, 1, 20, 20, 16, 11, 11, 16, 1, 1, 12, 16, 9, 12, 10, 10, 1, 12, 1, 1, 8, 10, 18, 8, 1, 1, 23, 7, 9, 23, 15, 15, 2, 12, 6, 2, 7, 15, 9, 9, 1, 10, 7, 1, 14, 14, 20, 3, 1, 20, 13, 13, 8, 15, 7, 8, 5, 5, 2, 2, 8, 21, 21, 4, 1, 4, 21, 21, 1, 14, 13, 1, 4, 4, 8, 1, 8, 13, 13, 17, 13, 8, 17, 11, 11, 8, 21, 8, 9, 9, 10, 6, 15, 10, 1, 1, 19, 22, 11, 19, 3, 14, 16, 3, 11, 11, 7, 15, 12, 7, 1, 1, 5, 3, 10, 5, 2, 2, 5, 1, 7, 5, 3, 3, 8, 12, 8, 19, 19, 2, 7, 2, 1, 1, 15, 15, 10, 15, 7, 7, 13, 9, 3, 13, 5, 5, 12, 8, 15, 12, 18, 18, 1, 3, 1, 4, 4, 1, 6, 19, 1, 6, 8, 8, 16, 27, 14, 16, 6, 6, 9, 8, 1, 9, 19, 19, 5, 10, 13, 5, 19, 19, 1, 1, 12, 6, 12, 14, 14, 9, 22, 1, 1, 16, 14, 16, 6, 6, 5, 8, 15, 5, 7, 7, 1, 22, 3, 1, 21, 6, 1, 21, 6, 6, 1, 6, 1, 1, 1, 16, 12, 16, 17, 17, 16, 10, 15, 16, 4, 4, 13, 5, 9, 13, 1, 1, 13, 8, 13, 13, 13, 11, 9, 3, 11, 10, 10, 10, 1, 19, 2, 2, 17, 27, 17, 9, 9, 17, 8, 17, 2, 2, 12, 10, 10, 12, 7, 7, 1, 19, 1, 10, 10, 5, 1, 5, 1, 1, 6, 1, 9, 6, 2, 2, 18, 4, 18, 1, 8, 1, 17, 17, 9, 7, 22, 9, 15, 15, 1, 20, 6, 1, 9, 9, 17, 8, 6, 17, 18, 18, 15, 12, 11, 11, 13, 8, 10, 13, 18, 18, 8, 8, 5, 8, 1, 1, 7, 6, 7, 9, 9, 7, 1, 9, 7, 4, 4, 7, 10, 10, 7, 14, 14, 15, 19, 5, 19, 6, 6, 28, 5, 28, 22, 22, 1, 4, 10, 1, 10, 10, 14, 19, 8, 8, 11, 8, 1, 11, 1, 1, 17, 1, 1, 17, 15, 15, 15, 13, 4, 15, 13, 13, 9, 19, 9, 2, 6, 7, 2, 9, 1, 20, 9, 17, 26, 8, 17, 17, 17, 2, 19, 15, 2, 3, 3, 11, 7, 8, 11, 12, 12, 7, 19, 8, 7, 14, 9, 6, 14, 9, 9, 15, 12, 1, 15, 7, 19, 10, 7, 15, 15, 18, 19, 15, 18, 5, 6, 6, 9, 13, 5, 9, 4, 4, 1, 16, 4, 1, 19, 19, 1, 1, 14, 1, 13, 13, 15, 17, 8, 15, 6, 6, 11, 4, 1, 11, 8, 8, 1, 18, 13, 1, 4, 4, 1, 19, 1, 5, 5, 6, 13, 6, 6, 11, 5, 1, 11, 13, 13, 6, 10, 26, 6, 1, 1, 3, 7, 19, 3, 15, 15, 6, 9, 7, 6, 10, 10, 7, 19, 17, 17, 11, 9, 9, 9, 6, 10, 12, 6, 5, 15, 19, 5, 17, 17, 11, 9, 19, 11, 12, 12, 6, 13, 13, 13, 1, 1, 9, 14, 16, 9, 8, 8, 18, 18, 1, 18, 26, 26, 2, 7, 17, 2, 5, 19, 4, 5, 12, 12, 5, 1, 18, 5, 13, 13, 12, 10, 12, 1, 1, 10, 1, 13, 10, 8, 5, 12, 12, 4, 10, 4, 15, 15, 19, 7, 7, 19, 11, 11, 8, 23, 9, 8, 10, 10, 1, 7, 7, 7, 5, 24, 11, 5, 6, 10, 10, 6, 12, 23, 15, 12, 1, 1, 12, 13, 9, 12, 23, 23, 10, 6, 10, 13, 13, 16, 8, 14, 16, 1, 1, 11, 17, 18, 11, 9, 9, 10, 8, 7, 10, 12, 18, 19, 12, 4, 4, 2, 10, 1, 2, 1, 1, 3, 1, 10, 3, 15, 15, 3, 18, 1, 3, 1, 1, 8, 1, 9, 9, 8, 12, 8, 15, 15, 6, 12, 7, 6, 15, 15, 16, 23, 16, 5, 5, 20, 1, 2, 2, 16, 24, 16, 18, 18, 14, 14, 10, 14, 21, 21, 2, 10, 23, 2, 20, 20, 22, 23, 13, 22, 11, 11, 13, 19, 13, 1, 1, 10, 8, 8, 11, 11, 15, 17, 12, 12, 15, 3, 8, 15, 4, 4, 12, 13, 18, 12, 10, 10, 8, 2, 10, 8, 20, 20, 17, 2, 1, 17, 13, 13, 17, 8, 18, 17, 2, 20, 1, 2, 4, 4, 1, 12, 1, 18, 18, 10, 1, 12, 10, 6, 6, 12, 9, 12, 1, 1, 11, 13, 20, 11, 1, 1, 1, 14, 14, 3, 14, 19, 15, 10, 19, 15, 15, 21, 23, 11, 19, 16, 16, 1, 4, 10, 1, 8, 8, 8, 10, 1, 15, 10, 15, 15, 16, 3, 16, 1, 1, 13, 4, 13, 13, 9, 2, 9, 4, 4, 10, 8, 2, 10, 19, 19, 8, 10, 10, 15, 2, 20, 15, 1, 1, 19, 1, 19, 9, 9, 4, 12, 1, 4, 13, 13, 10, 8, 9, 10, 7, 7, 5, 8, 13, 5, 18, 18, 8, 1, 1, 8, 7, 7, 1, 11, 3, 1, 18, 18, 21, 11, 15, 21, 12, 12, 12, 1, 21, 12, 8, 8, 17, 10, 11, 17, 18, 18, 21, 4, 1, 1, 17, 11, 15, 1, 11, 1, 1, 10, 10, 9, 12, 4, 9, 2, 2, 1, 9, 1, 9, 9, 15, 8, 15, 1, 1, 9, 4, 9, 8, 8, 1, 1, 2, 1, 5, 5, 14, 23, 1, 14, 16, 16, 16, 8, 12, 16, 5, 5, 13, 8, 13, 17, 17, 14, 17, 8, 14, 1, 1, 17, 11, 1, 17, 16, 16, 19, 18, 11, 19, 22, 22, 5, 5, 11, 5, 9, 1, 10, 10, 17, 2, 10, 17, 8, 8, 6, 21, 17, 17, 1, 5, 17, 1, 15, 11, 11, 6, 1, 1, 4, 13, 12, 4, 11, 12, 9, 11, 7, 7, 2, 11, 2, 1, 1, 18, 1, 4, 18, 1, 8, 1, 1, 1, 1, 6, 18, 23, 6, 9, 9, 6, 9, 8, 6, 18, 18, 2, 1, 1, 9, 26, 17, 9, 6, 6, 7, 2, 11, 7, 5, 5, 2, 20, 18, 2, 14, 14, 1, 1, 5, 1, 5, 5, 4, 20, 9, 4, 10, 10, 6, 14, 2, 6, 13, 13, 18, 12, 6, 18, 11, 17, 5, 11, 1, 1, 1, 4, 6, 1, 3, 3, 9, 1, 13, 9, 10, 10, 12, 10, 1, 1, 1, 18, 11, 1, 6, 6, 1, 2, 2, 1, 1, 8, 1, 1, 10, 18, 1, 24, 24, 9, 5, 6, 2, 5, 13, 13, 17, 3, 26, 17, 24, 24, 17, 1, 2, 17, 6, 1, 20, 6, 1, 1, 16, 7, 1, 16, 7, 20, 7, 6, 17, 14, 6, 11, 11, 10, 12, 17, 17, 21, 17, 21, 15, 15, 14, 13, 14, 4, 3, 3, 10, 1, 10, 8, 10, 8, 1, 1, 8, 18, 8, 1, 1, 8, 8, 9, 1, 9, 19, 19, 6, 10, 6, 1, 1, 4, 4, 16, 6, 16, 6, 6, 15, 3, 15, 2, 2, 1, 10, 10, 23, 1, 23, 3, 3, 19, 7, 19, 1, 1, 9, 9, 3, 17, 3, 7, 10, 7, 15, 15, 1, 1, 9, 9, 2, 13, 2];
Lower_Bound = [1, 6, 11, 14, 28, 43, 50, 62, 68, 89, 76, 85, 79, 98, 99, 101, 100, 125, 108, 113, 120, 121, 136, 135, 144, 160, 176, 181, 206, 216, 222, 225, 226, 237, 254, 9, 17, 27, 30, 28, 30, 48, 48, 49, 57, 66, 67, 78, 78, 79, 80, 83, 84, 94, 115, 116, 126, 136, 146, 147, 149, 165, 173, 181, 183, 201, 200, 217, 231, 267, 279, 47, 44, 39, 38, 44, 43, 54, 55, 56, 77, 78, 71, 78, 95, 104, 91, 94, 94, 124, 130, 136, 138, 142, 147, 162, 164, 178, 174, 191, 187, 188, 199, 198, 241, 245, 254, 50, 45, 43, 45, 54, 61, 58, 59, 58, 81, 89, 100, 79, 97, 115, 121, 106, 110, 119, 131, 141, 156, 156, 193, 201, 185, 204, 219, 192, 195, 191, 190, 192, 193, 261, 278, 54, 45, 59, 47, 60, 76, 120, 111, 98, 89, 95, 98, 113, 100, 118, 134, 131, 120, 129, 130, 157, 163, 161, 184, 177, 179, 193, 212, 204, 202, 211, 194, 204, 200, 206, 207, 61, 83, 87, 73, 72, 76, 84, 97, 106, 117, 116, 125, 128, 129, 129, 151, 147, 148, 141, 142, 148, 149, 155, 157, 165, 184, 186, 189, 202, 209, 214, 221, 220, 237, 239, 242, 91, 84, 91, 87, 86, 77, 96, 101, 122, 144, 143, 132, 145, 151, 151, 164, 159, 155, 148, 146, 171, 150, 156, 157, 158, 174, 191, 202, 206, 218, 219, 227, 241, 240, 250, 244, 108, 110, 118, 112, 95, 99, 107, 114, 114, 125, 129, 130, 140, 138, 156, 167, 166, 167, 170, 178, 177, 179, 164, 180, 170, 182, 196, 212, 211, 212, 219, 228, 235, 240, 246, 261, 136, 127, 121, 129, 107, 106, 116, 132, 136, 125, 126, 131, 147, 142, 155, 165, 160, 160, 207, 198, 204, 187, 201, 195, 198, 190, 201, 208, 232, 218, 228, 229, 256, 249, 264, 276, 131, 127, 116, 112, 112, 130, 130, 143, 145, 140, 128, 136, 136, 140, 142, 147, 152, 220, 208, 221, 220, 219, 216, 211, 205, 215, 224, 237, 241, 245, 240, 280, 275, 292, 284, 296, 151, 138, 139, 129, 139, 132, 157, 159, 148, 142, 154, 153, 166, 170, 170, 159, 237, 224, 235, 231, 245, 226, 228, 221, 232, 222, 231, 235, 261, 255, 307, 295, 296, 301, 311, 301, 180, 167, 151, 152, 154, 163, 166, 173, 161, 158, 155, 156, 160, 175, 170, 226, 227, 236, 244, 259, 252, 267, 252, 256, 232, 233, 250, 267, 272, 292, 295, 316, 310, 320, 333, 334, 229, 175, 186, 169, 182, 171, 175, 185, 175, 167, 176, 158, 172, 188, 223, 228, 230, 230, 237, 247, 253, 265, 266, 276, 298, 300, 309, 281, 324, 302, 318, 337, 375, 341, 345, 344, 219, 211, 201, 201, 184, 185, 189, 186, 177, 181, 178, 197, 180, 188, 203, 204, 223, 232, 236, 249, 259, 266, 271, 290, 297, 304, 305, 323, 336, 346, 338, 347, 363, 381, 350, 350, 223, 212, 210, 208, 199, 191, 191, 192, 201, 190, 191, 199, 191, 190, 195, 205, 221, 237, 242, 256, 273, 275, 275, 290, 306, 315, 313, 318, 326, 345, 336, 352, 363, 387, 368, 367, 239, 245, 216, 214, 210, 212, 200, 207, 206, 205, 194, 193, 192, 195, 200, 208, 214, 233, 291, 291, 289, 293, 286, 291, 293, 307, 308, 313, 319, 328, 334, 346, 364, 384, 373, 374, 240, 242, 236, 227, 231, 220, 221, 218, 225, 205, 202, 201, 212, 211, 236, 217, 239, 234, 248, 264, 288, 295, 317, 311, 313, 308, 340, 334, 349, 342, 352, 358, 375, 396, 403, 416, 244, 247, 237, 248, 240, 241, 237, 223, 221, 214, 207, 222, 222, 224, 227, 261, 246, 252, 250, 252, 290, 299, 318, 321, 319, 321, 330, 368, 364, 369, 362, 377, 378, 388, 391];
Upper_Bound = [4, 13, 14, 15, 33, 47, 54, 74, 69, 90, 77, 96, 90, 103, 103, 105, 102, 130, 110, 120, 123, 124, 137, 138, 150, 162, 179, 185, 210, 221, 223, 229, 227, 242, 258, 15, 19, 33, 32, 29, 36, 51, 49, 50, 58, 72, 69, 80, 84, 87, 94, 91, 96, 98, 123, 118, 133, 143, 147, 150, 150, 169, 177, 192, 188, 202, 214, 223, 237, 272, 284, 56, 51, 44, 44, 46, 47, 72, 60, 61, 81, 80, 92, 83, 96, 110, 93, 101, 96, 130, 135, 138, 140, 149, 151, 165, 165, 185, 178, 194, 189, 202, 202, 200, 250, 253, 258, 62, 48, 50, 47, 56, 65, 59, 62, 59, 85, 92, 103, 83, 103, 116, 127, 114, 120, 129, 140, 144, 159, 157, 204, 214, 187, 205, 220, 197, 204, 193, 194, 204, 211, 262, 281, 63, 54, 61, 48, 69, 80, 123, 118, 99, 96, 100, 106, 121, 110, 124, 135, 133, 123, 130, 131, 159, 169, 162, 185, 181, 191, 196, 217, 214, 213, 219, 199, 209, 206, 215, 210, 62, 86, 91, 78, 76, 79, 86, 98, 107, 121, 119, 126, 129, 131, 133, 153, 154, 150, 142, 143, 158, 152, 163, 159, 172, 198, 188, 196, 206, 211, 215, 222, 221, 245, 243, 253, 101, 85, 98, 95, 88, 94, 97, 105, 125, 148, 150, 140, 149, 152, 152, 176, 164, 161, 154, 152, 183, 151, 159, 160, 162, 185, 199, 203, 209, 220, 220, 237, 244, 241, 259, 247, 111, 117, 120, 115, 102, 103, 116, 118, 118, 127, 142, 132, 145, 142, 158, 169, 170, 168, 172, 179, 180, 182, 173, 181, 172, 192, 198, 215, 216, 213, 226, 233, 239, 241, 247, 263, 137, 131, 123, 133, 112, 109, 117, 137, 145, 132, 130, 134, 149, 143, 159, 167, 163, 161, 209, 200, 206, 197, 209, 196, 200, 191, 203, 214, 237, 227, 236, 230, 257, 251, 270, 279, 137, 130, 117, 117, 113, 131, 133, 150, 146, 157, 133, 137, 137, 144, 143, 151, 154, 225, 209, 224, 226, 220, 220, 214, 208, 218, 235, 238, 254, 246, 241, 283, 284, 293, 288, 298, 158, 153, 141, 130, 142, 135, 169, 166, 150, 146, 155, 154, 173, 182, 171, 160, 247, 225, 242, 232, 257, 228, 232, 222, 233, 227, 239, 243, 265, 256, 308, 298, 298, 308, 318, 303, 181, 168, 152, 170, 157, 164, 174, 174, 167, 163, 160, 157, 163, 180, 171, 231, 229, 238, 246, 262, 259, 273, 254, 262, 233, 238, 253, 272, 275, 293, 304, 319, 313, 326, 336, 345, 230, 180, 207, 173, 187, 178, 176, 191, 178, 175, 183, 161, 175, 194, 231, 234, 240, 239, 238, 253, 254, 266, 271, 277, 299, 302, 310, 284, 325, 306, 319, 341, 381, 343, 349, 345, 236, 214, 202, 206, 187, 191, 191, 189, 178, 183, 182, 198, 197, 193, 208, 212, 230, 235, 244, 253, 262, 275, 277, 302, 301, 315, 320, 331, 346, 350, 342, 348, 369, 386, 357, 366, 225, 213, 211, 211, 203, 193, 196, 194, 208, 196, 197, 203, 204, 199, 199, 206, 237, 250, 243, 268, 278, 279, 277, 291, 308, 320, 328, 319, 327, 350, 345, 356, 368, 392, 369, 380, 249, 247, 221, 220, 216, 219, 201, 216, 209, 212, 198, 203, 195, 205, 201, 211, 222, 239, 300, 293, 292, 294, 291, 293, 294, 322, 316, 314, 320, 334, 336, 348, 369, 385, 379, 383, 241, 251, 243, 234, 232, 222, 231, 220, 226, 206, 206, 209, 217, 218, 240, 245, 256, 238, 261, 271, 294, 296, 319, 314, 315, 318, 342, 337, 356, 349, 359, 375, 377, 405, 408, 418, 247, 248, 241, 254, 242, 249, 243, 225, 234, 227, 211, 223, 225, 226, 229, 264, 249, 256, 252, 259, 292, 302, 321, 324, 324, 330, 338, 372, 386, 370, 365, 378, 379, 394, 408];
Start = 1;
End = 646;
Time = 408;
